Route #0: 394 441 40 298 604 742 880 119 610 23
Route #1: 968 473 109 77 417 424 90 395 519 728 65 186
Route #2: 544 278 511 308 191 712 898 979 915 732
Route #3: 615 667 808 926 964 988 277 286 824
Route #4: 488 800 211 359 442 804 715 888 923 355
Route #5: 856 774 478 477 5 644 900 25 1000
Route #6: 660 402 456 565 766 343 930 756 241 169
Route #7: 997 69 87 585 365 521 120 737 199 873
Route #8: 231 1 70 166 515 307 617 687 273 717
Route #9: 590 224 312 702 951 495 420 21 583 576 676
Route #10: 155 924 638 72 573 337 613 588 947 751
Route #11: 130 725 612 904 855 13 78 794 971 628 376 817
Route #12: 714 561 498 438 22 311 893 266
Route #13: 183 981 125 954 404 39 782 256 857 510
Route #14: 663 581 335 52 368 654 918 530 444 699 59 140
Route #15: 36 933 577 533 329 249 945 20 46 689 138 905 225 946
Route #16: 902 66 129 8 943 920 227 850 828 567 71
Route #17: 745 218 371 643 143 844 956 661
Cost: 248020
